(declare-const a Real)
(declare-const b Real)
(declare-const c Real)
(assert (= (* a b c) 1))
(assert (> a 0))
(assert (> b 0))
(assert (> c 0))
(assert (not (<= (+ -1 (* (pow (+ (* 2 (pow b 5)) (* 4 (pow a 3) (pow b (/ 1 2)))) -1) (+ 1 (* (pow a 2) (pow b 2)))) (* (/ 1 3) (pow a -1) (pow c -1)) (* (/ 1 3) (pow b -1) (pow c -1))) 0)))
(check-sat)
(get-model)
(exit)